10
1 0 91
2 0 5
2 1 17
3 0 79
3 1 65
3 2 23
4 0 52
4 1 39
4 2 13
4 3 84
5 0 96
5 1 79
5 2 42
5 3 65
5 4 42
6 0 47
6 1 34
6 2 44
6 3 4
6 4 16
6 5 49
7 0 55
7 1 6
7 2 96
7 3 48
7 4 82
7 5 62
7 6 54
8 0 11
8 1 47
8 2 75
8 3 28
8 4 29
8 5 46
8 6 1
8 7 87
9 0 84
9 1 36
9 2 54
9 3 72
9 4 50
9 5 83
9 6 43
9 7 16
9 8 81
